benchmarks_CP/INST_36x36/25/inst36x36_25_4.dzn
S=6;
start=[|
-1,	1,	23,	21,	-1,	13,	-1,	-1,	7,	-1,	36,	-1,	-1,	-1,	-1,	-1,	-1,	27,	29,	-1,	-1,	-1,	-1,	-1,	-1,	-1,	-1,	-1,	-1,	-1,	-1,	-1,	-1,	-1,	-1,	28|
-1,	-1,	-1,	-1,	-1,	28,	-1,	-1,	13,	22,	21,	-1,	-1,	25,	-1,	-1,	-1,	11,	-1,	-1,	-1,	30,	-1,	-1,	-1,	-1,	35,	-1,	-1,	-1,	-1,	-1,	-1,	31,	-1,	-1|
-1,	36,	-1,	8,	-1,	-1,	-1,	-1,	-1,	-1,	-1,	-1,	-1,	-1,	-1,	-1,	-1,	-1,	-1,	-1,	-1,	-1,	-1,	-1,	-1,	-1,	16,	-1,	-1,	14,	-1,	-1,	-1,	-1,	-1,	-1|
-1,	-1,	-1,	-1,	-1,	-1,	17,	-1,	-1,	-1,	35,	-1,	-1,	-1,	-1,	34,	-1,	10,	-1,	-1,	-1,	28,	9,	11,	-1,	-1,	-1,	-1,	-1,	-1,	-1,	-1,	-1,	-1,	2,	33|
-1,	-1,	-1,	-1,	29,	33,	28,	-1,	30,	-1,	-1,	-1,	-1,	-1,	-1,	-1,	-1,	19,	-1,	-1,	7,	-1,	-1,	-1,	-1,	-1,	-1,	-1,	11,	-1,	-1,	20,	-1,	-1,	8,	-1|
-1,	-1,	-1,	-1,	-1,	-1,	-1,	-1,	-1,	-1,	16,	-1,	-1,	-1,	-1,	-1,	-1,	-1,	-1,	-1,	-1,	-1,	-1,	-1,	-1,	-1,	25,	-1,	-1,	-1,	-1,	34,	21,	4,	-1,	26|
-1,	11,	1,	-1,	-1,	-1,	19,	8,	-1,	-1,	-1,	-1,	-1,	6,	-1,	-1,	-1,	-1,	-1,	-1,	-1,	-1,	-1,	-1,	-1,	-1,	28,	-1,	-1,	-1,	-1,	-1,	33,	30,	-1,	31|
13,	3,	-1,	-1,	-1,	-1,	-1,	31,	-1,	-1,	22,	14,	-1,	-1,	-1,	-1,	-1,	-1,	-1,	-1,	-1,	21,	-1,	-1,	-1,	-1,	5,	-1,	-1,	-1,	-1,	-1,	-1,	-1,	-1,	-1|
-1,	-1,	14,	-1,	2,	23,	-1,	-1,	-1,	-1,	-1,	-1,	-1,	-1,	-1,	-1,	-1,	-1,	-1,	7,	24,	-1,	-1,	13,	-1,	-1,	-1,	8,	-1,	-1,	-1,	-1,	-1,	-1,	-1,	-1|
22,	-1,	-1,	-1,	-1,	-1,	-1,	35,	-1,	-1,	-1,	-1,	-1,	-1,	-1,	-1,	-1,	12,	-1,	16,	-1,	31,	-1,	-1,	-1,	-1,	29,	-1,	-1,	-1,	-1,	14,	-1,	34,	-1,	-1|
21,	-1,	-1,	-1,	-1,	10,	-1,	-1,	-1,	-1,	-1,	-1,	-1,	-1,	-1,	25,	-1,	-1,	-1,	1,	-1,	34,	-1,	-1,	-1,	-1,	-1,	-1,	-1,	30,	35,	-1,	4,	-1,	13,	-1|
-1,	-1,	12,	-1,	-1,	-1,	13,	-1,	-1,	-1,	-1,	-1,	-1,	-1,	-1,	-1,	11,	-1,	-1,	17,	10,	-1,	-1,	-1,	-1,	-1,	20,	-1,	-1,	-1,	-1,	-1,	22,	-1,	-1,	-1|
36,	28,	-1,	-1,	16,	-1,	-1,	10,	-1,	13,	-1,	-1,	-1,	-1,	33,	-1,	-1,	-1,	-1,	-1,	-1,	-1,	-1,	-1,	18,	-1,	-1,	-1,	-1,	11,	-1,	-1,	-1,	-1,	-1,	19|
-1,	-1,	-1,	-1,	-1,	-1,	-1,	33,	-1,	-1,	-1,	-1,	11,	23,	-1,	-1,	-1,	28,	10,	-1,	-1,	-1,	31,	-1,	-1,	-1,	32,	20,	-1,	-1,	-1,	5,	-1,	-1,	-1,	-1|
-1,	-1,	2,	-1,	-1,	-1,	-1,	-1,	-1,	35,	-1,	-1,	16,	-1,	-1,	-1,	25,	-1,	-1,	-1,	-1,	-1,	26,	-1,	-1,	-1,	-1,	-1,	-1,	-1,	-1,	-1,	-1,	6,	-1,	-1|
-1,	22,	-1,	-1,	-1,	-1,	-1,	34,	21,	5,	-1,	-1,	32,	36,	-1,	35,	3,	-1,	18,	9,	2,	-1,	-1,	-1,	17,	-1,	-1,	-1,	1,	-1,	-1,	-1,	-1,	-1,	-1,	10|
-1,	-1,	-1,	-1,	-1,	11,	-1,	19,	-1,	20,	-1,	-1,	26,	-1,	-1,	22,	-1,	-1,	-1,	23,	-1,	-1,	16,	-1,	35,	-1,	-1,	13,	9,	-1,	28,	-1,	-1,	-1,	-1,	-1|
30,	6,	19,	-1,	-1,	-1,	32,	-1,	22,	-1,	-1,	-1,	-1,	34,	-1,	-1,	-1,	-1,	-1,	24,	1,	33,	3,	-1,	21,	-1,	4,	-1,	-1,	26,	-1,	16,	-1,	36,	-1,	17|
9,	-1,	-1,	-1,	-1,	-1,	-1,	-1,	-1,	-1,	-1,	-1,	-1,	-1,	20,	13,	-1,	-1,	-1,	31,	19,	-1,	-1,	-1,	-1,	-1,	-1,	23,	30,	-1,	-1,	-1,	24,	-1,	3,	-1|
-1,	-1,	-1,	11,	-1,	-1,	-1,	7,	-1,	-1,	-1,	34,	-1,	-1,	-1,	19,	-1,	-1,	-1,	18,	-1,	8,	-1,	-1,	-1,	-1,	-1,	9,	20,	-1,	-1,	-1,	-1,	-1,	27,	-1|
-1,	-1,	25,	-1,	18,	-1,	-1,	6,	31,	-1,	9,	-1,	-1,	22,	-1,	-1,	-1,	34,	2,	-1,	-1,	-1,	-1,	-1,	-1,	-1,	14,	35,	33,	-1,	-1,	-1,	-1,	-1,	-1,	-1|
-1,	-1,	17,	-1,	-1,	12,	-1,	-1,	-1,	-1,	-1,	-1,	-1,	-1,	-1,	-1,	-1,	-1,	-1,	-1,	-1,	-1,	-1,	-1,	-1,	-1,	-1,	-1,	-1,	21,	10,	15,	-1,	14,	9,	-1|
-1,	-1,	-1,	-1,	-1,	-1,	-1,	-1,	32,	-1,	-1,	-1,	-1,	-1,	-1,	-1,	-1,	-1,	14,	-1,	-1,	-1,	-1,	-1,	-1,	5,	-1,	-1,	-1,	-1,	34,	4,	-1,	29,	-1,	-1|
27,	-1,	-1,	-1,	26,	-1,	-1,	-1,	-1,	-1,	-1,	-1,	-1,	-1,	-1,	-1,	-1,	-1,	-1,	-1,	-1,	35,	25,	7,	-1,	-1,	-1,	-1,	-1,	-1,	-1,	-1,	18,	-1,	-1,	-1|
-1,	-1,	-1,	-1,	-1,	-1,	5,	-1,	-1,	-1,	-1,	13,	-1,	-1,	-1,	-1,	-1,	31,	-1,	-1,	21,	-1,	-1,	18,	-1,	-1,	-1,	26,	-1,	-1,	-1,	-1,	-1,	-1,	-1,	-1|
-1,	25,	-1,	-1,	-1,	20,	-1,	-1,	-1,	-1,	24,	18,	35,	-1,	14,	-1,	29,	-1,	-1,	-1,	-1,	-1,	2,	31,	-1,	-1,	-1,	-1,	-1,	16,	-1,	-1,	-1,	-1,	-1,	-1|
3,	17,	-1,	28,	30,	-1,	-1,	1,	-1,	14,	-1,	-1,	-1,	-1,	15,	-1,	18,	-1,	27,	34,	-1,	-1,	-1,	-1,	-1,	-1,	-1,	-1,	-1,	-1,	-1,	-1,	-1,	-1,	-1,	-1|
-1,	24,	-1,	-1,	-1,	-1,	-1,	23,	-1,	15,	-1,	-1,	21,	-1,	5,	-1,	-1,	-1,	32,	-1,	-1,	14,	-1,	1,	7,	-1,	6,	11,	34,	25,	-1,	-1,	-1,	-1,	-1,	-1|
14,	29,	-1,	5,	11,	-1,	-1,	-1,	-1,	7,	-1,	-1,	-1,	-1,	-1,	30,	-1,	-1,	-1,	-1,	-1,	-1,	33,	3,	-1,	18,	27,	15,	21,	-1,	17,	-1,	34,	-1,	-1,	-1|
-1,	-1,	-1,	-1,	-1,	-1,	-1,	-1,	-1,	-1,	30,	-1,	-1,	-1,	-1,	-1,	-1,	-1,	-1,	-1,	20,	-1,	-1,	8,	14,	-1,	-1,	-1,	13,	-1,	-1,	-1,	-1,	10,	33,	-1|
-1,	14,	5,	-1,	-1,	-1,	31,	-1,	29,	-1,	32,	35,	-1,	-1,	-1,	-1,	-1,	-1,	15,	-1,	30,	-1,	-1,	-1,	8,	-1,	-1,	-1,	-1,	-1,	-1,	-1,	20,	-1,	-1,	11|
-1,	33,	-1,	-1,	12,	-1,	-1,	-1,	-1,	-1,	-1,	-1,	-1,	-1,	-1,	-1,	-1,	35,	-1,	32,	-1,	-1,	-1,	-1,	1,	-1,	-1,	16,	-1,	-1,	-1,	-1,	-1,	-1,	-1,	-1|
8,	35,	-1,	-1,	-1,	-1,	-1,	-1,	33,	-1,	34,	-1,	6,	-1,	10,	27,	31,	-1,	-1,	-1,	3,	-1,	-1,	17,	-1,	-1,	12,	-1,	-1,	9,	-1,	-1,	-1,	5,	36,	-1|
29,	21,	30,	-1,	31,	-1,	-1,	12,	-1,	-1,	-1,	-1,	1,	-1,	-1,	32,	-1,	-1,	-1,	-1,	34,	-1,	-1,	-1,	-1,	-1,	2,	-1,	-1,	-1,	-1,	-1,	-1,	-1,	-1,	-1|
-1,	-1,	24,	-1,	-1,	27,	-1,	-1,	-1,	-1,	-1,	-1,	-1,	-1,	-1,	-1,	-1,	-1,	-1,	-1,	-1,	26,	-1,	21,	-1,	-1,	-1,	31,	-1,	-1,	-1,	-1,	-1,	-1,	-1,	-1|
-1,	34,	3,	10,	17,	6,	-1,	21,	-1,	36,	-1,	-1,	-1,	26,	-1,	-1,	-1,	-1,	-1,	-1,	-1,	-1,	-1,	-1,	-1,	-1,	18,	29,	-1,	-1,	31,	-1,	15,	-1,	4,	-1|];
